
    dias = 7;
    clientes = 3;
    centrales = 3;

    costos=[100,200,300];
    capacidades=[100,100,400];
    porcentajeRegimen=[100,100,100];
    diasRegimen=[5,5,5];

    demanda=[|50,50,50,50,80,80,90|250,220,200,200,200,200,200|100,100,100,100,180,190,100|]
    